n_res = 4;
rcap = [17, 15, 153, 138];
rtype = [1, 1, 2, 2];
n_tasks = 30;
modes = [ {1, 2, 3}, {4, 5, 6}, {7, 8, 9}, {10, 11, 12}, {13, 14, 15}, {16, 17, 18}, {19, 20, 21}, {22, 23, 24}, {25, 26, 27}, {28, 29, 30}, {31, 32, 33}, {34, 35, 36}, {37, 38, 39}, {40, 41, 42}, {43, 44, 45}, {46, 47, 48}, {49, 50, 51}, {52, 53, 54}, {55, 56, 57}, {58, 59, 60}, {61, 62, 63}, {64, 65, 66}, {67, 68, 69}, {70, 71, 72}, {73, 74, 75}, {76, 77, 78}, {79, 80, 81}, {82, 83, 84}, {85, 86, 87}, {88, 89, 90} ];
succ = [ {4, 5, 14}, {13, 22}, {17, 18}, {8, 11}, {6, 7, 9}, {10, 11, 18}, {13, 20}, {9, 15}, {16}, {12}, {20, 21}, {21, 25, 28}, {16, 18, 21}, {24, 27, 28}, {16, 22}, {17, 25, 29}, {19, 23, 26}, {23}, {30}, {28, 29}, {24, 26}, {26}, {24}, {30}, {27}, {27}, {30}, {}, {}, {} ];
n_opt = 90;
dur = [7, 10, 10, 8, 8, 10, 2, 2, 4, 1, 3, 4, 4, 5, 5, 6, 8, 10, 3, 6, 8, 2, 3, 7, 1, 4, 8, 2, 5, 8, 4, 8, 8, 2, 4, 10, 1, 3, 7, 3, 4, 8, 3, 8, 8, 6, 7, 8, 7, 7, 9, 5, 6, 9, 5, 7, 9, 2, 3, 5, 3, 9, 10, 2, 2, 4, 3, 5, 8, 3, 8, 10, 4, 5, 6, 4, 5, 10, 2, 5, 10, 2, 5, 7, 2, 3, 6, 2, 4, 6];
rreq = [|  6,  4,  5,  8,  8,  7,  6,  6,  2,  2,  1,  1,  4,  4,  4, 10,  7,  6,  6,  5,  4,  2,  2,  1,  6,  5,  3, 10,  8,  7,  7,  7,  6,  8,  6,  6,  4,  4,  3,  7,  6,  6,  7,  6,  6,  3,  2,  1,  9,  8,  7,  9,  9,  8,  3,  2,  2,  7,  6,  3, 10,  6,  3,  9,  7,  5,  7,  7,  6,  7,  5,  2, 10,  9,  8,  6,  6,  5,  5,  5,  5,  4,  4,  4,  5,  5,  4,  5,  5,  4
        |  2,  1,  1,  7,  7,  7,  9,  9,  9,  2,  1,  1,  5,  3,  4,  8,  7,  6,  6,  4,  3,  9,  8,  4,  2,  2,  1,  9,  9,  9,  4,  2,  3,  9,  8,  8,  6,  6,  6,  3,  3,  3,  8,  6,  7,  7,  5,  3,  5,  6,  4,  5,  4,  2,  5,  5,  3,  8,  7,  3,  7,  6,  2,  4,  5,  2,  1,  1,  1,  6,  3,  3,  4,  4,  2,  5,  5,  3,  7,  6,  4,  8,  8,  6,  9,  9,  8,  7,  4,  4
        |  8,  7,  5,  8,  5,  3,  6,  5,  4,  8,  7,  6, 10, 10,  9,  5,  5,  4,  7,  6,  4,  3,  2,  2,  5,  3,  3,  7,  5,  4,  8,  8,  8,  5,  4,  3,  6,  5,  4,  4,  4,  3,  8,  7,  6,  4,  3,  3, 10, 10,  4,  6,  5,  4,  9,  9,  8,  8,  6,  6, 10,  9,  9,  5,  5,  4,  7,  4,  4,  9,  7,  4,  3,  3,  1,  8,  6,  6,  8,  8,  6,  5,  4,  1,  7,  6,  6,  8,  5,  1
        |  9,  7,  6,  9, 10,  9,  8,  9,  7,  1,  1,  1,  5,  4,  3,  6,  4,  2,  3,  3,  2,  6,  5,  4,  6,  5,  4,  8,  8,  6,  4,  1,  3,  4,  4,  3,  6,  4,  2,  7,  4,  2,  6,  5,  6,  5,  3,  1,  8,  8,  3,  7,  6,  4,  9,  8,  8,  8,  4,  4,  5,  5,  5,  7,  6,  4,  9,  8,  8,  7,  6,  6,  2,  2,  1,  9,  5,  4,  2,  2,  1,  6,  5,  5,  5,  4,  4,  9,  6,  6 |];
